1 75 70 24 63 1 22 60 1 2 73 41 46 1 5 83 74 6 1 1 45 25 94 97 1 37 18 9 64 1 80 23 35 59 1 86 100 34 79 1 66 72 99 4 1 51 33 81 62 1 44 3 30 68 1 36 95 57 58 1 14 52 10 53 1 55 32 31 43 1 17 69 78 42 1 90 77 21 28 1 39 54 40 38 1 82 15 93 50 8 47 1 48 76 96 16 1 98 27 29 11 1 26 89 1 7 49 65 19 1 101 13 67 12 1 91 88 85 87 1 56 71 84 61 20 92 
